p cnf 386 460
7 -8 -12 21 22 0
7 -8 -12 21 -22 0
7 -8 -12 -21 23 0
7 -8 -12 -21 -23 0
-5 -19 -6 24 25 0
-5 -19 -6 24 -25 0
-5 -19 -6 -24 26 0
-5 -19 -6 -24 -26 0
-18 2 -5 27 28 0
-18 2 -5 27 -28 0
-18 2 -5 -27 29 0
-18 2 -5 -27 -29 0
3 -7 -2 30 31 0
3 -7 -2 30 -31 0
3 -7 -2 -30 32 0
3 -7 -2 -30 -32 0
1 -16 5 33 34 0
1 -16 5 33 -34 0
1 -16 5 -33 35 0
1 -16 5 -33 -35 0
8 6 16 36 37 0
8 6 16 36 -37 0
8 6 16 -36 38 0
8 6 16 -36 -38 0
-12 2 5 39 40 0
-12 2 5 39 -40 0
-12 2 5 -39 41 0
-12 2 5 -39 -41 0
15 -9 19 42 43 0
15 -9 19 42 -43 0
15 -9 19 -42 44 0
15 -9 19 -42 -44 0
9 -19 4 45 46 0
9 -19 4 45 -46 0
9 -19 4 -45 47 0
9 -19 4 -45 -47 0
19 -5 17 48 49 0
19 -5 17 48 -49 0
19 -5 17 -48 50 0
19 -5 17 -48 -50 0
18 -19 5 51 52 0
18 -19 5 51 -52 0
18 -19 5 -51 53 0
18 -19 5 -51 -53 0
-15 -16 -1 54 55 0
-15 -16 -1 54 -55 0
-15 -16 -1 -54 56 0
-15 -16 -1 -54 -56 0
8 12 -14 57 58 0
8 12 -14 57 -58 0
8 12 -14 -57 59 0
8 12 -14 -57 -59 0
18 8 19 60 61 0
18 8 19 60 -61 0
18 8 19 -60 62 0
18 8 19 -60 -62 0
19 -7 -16 63 64 0
19 -7 -16 63 -64 0
19 -7 -16 -63 65 0
19 -7 -16 -63 -65 0
18 17 2 66 67 0
18 17 2 66 -67 0
18 17 2 -66 68 0
18 17 2 -66 -68 0
-16 -3 10 69 70 0
-16 -3 10 69 -70 0
-16 -3 10 -69 71 0
-16 -3 10 -69 -71 0
-3 -12 -19 72 73 0
-3 -12 -19 72 -73 0
-3 -12 -19 -72 74 0
-3 -12 -19 -72 -74 0
-10 7 -12 75 76 0
-10 7 -12 75 -76 0
-10 7 -12 -75 77 0
-10 7 -12 -75 -77 0
10 6 -1 78 79 0
10 6 -1 78 -79 0
10 6 -1 -78 80 0
10 6 -1 -78 -80 0
2 4 16 81 82 0
2 4 16 81 -82 0
2 4 16 -81 83 0
2 4 16 -81 -83 0
12 -1 6 84 85 0
12 -1 6 84 -85 0
12 -1 6 -84 86 0
12 -1 6 -84 -86 0
5 -19 -17 87 88 0
5 -19 -17 87 -88 0
5 -19 -17 -87 89 0
5 -19 -17 -87 -89 0
17 -20 -4 90 91 0
17 -20 -4 90 -91 0
17 -20 -4 -90 92 0
17 -20 -4 -90 -92 0
2 20 17 93 94 0
2 20 17 93 -94 0
2 20 17 -93 95 0
2 20 17 -93 -95 0
-2 6 -7 96 97 0
-2 6 -7 96 -97 0
-2 6 -7 -96 98 0
-2 6 -7 -96 -98 0
1 20 13 99 100 0
1 20 13 99 -100 0
1 20 13 -99 101 0
1 20 13 -99 -101 0
12 -6 8 102 103 0
12 -6 8 102 -103 0
12 -6 8 -102 104 0
12 -6 8 -102 -104 0
-5 16 -8 105 106 0
-5 16 -8 105 -106 0
-5 16 -8 -105 107 0
-5 16 -8 -105 -107 0
15 -6 -17 108 109 0
15 -6 -17 108 -109 0
15 -6 -17 -108 110 0
15 -6 -17 -108 -110 0
14 -5 -16 111 112 0
14 -5 -16 111 -112 0
14 -5 -16 -111 113 0
14 -5 -16 -111 -113 0
-2 8 16 114 115 0
-2 8 16 114 -115 0
-2 8 16 -114 116 0
-2 8 16 -114 -116 0
1 -15 -18 117 118 0
1 -15 -18 117 -118 0
1 -15 -18 -117 119 0
1 -15 -18 -117 -119 0
12 19 10 120 121 0
12 19 10 120 -121 0
12 19 10 -120 122 0
12 19 10 -120 -122 0
3 13 2 123 124 0
3 13 2 123 -124 0
3 13 2 -123 125 0
3 13 2 -123 -125 0
-16 -9 2 126 127 0
-16 -9 2 126 -127 0
-16 -9 2 -126 128 0
-16 -9 2 -126 -128 0
14 -13 5 129 130 0
14 -13 5 129 -130 0
14 -13 5 -129 131 0
14 -13 5 -129 -131 0
-7 -15 -4 132 133 0
-7 -15 -4 132 -133 0
-7 -15 -4 -132 134 0
-7 -15 -4 -132 -134 0
-3 -5 -15 135 136 0
-3 -5 -15 135 -136 0
-3 -5 -15 -135 137 0
-3 -5 -15 -135 -137 0
-17 -13 -12 138 139 0
-17 -13 -12 138 -139 0
-17 -13 -12 -138 140 0
-17 -13 -12 -138 -140 0
4 9 -8 141 142 0
4 9 -8 141 -142 0
4 9 -8 -141 143 0
4 9 -8 -141 -143 0
-15 -14 10 144 145 0
-15 -14 10 144 -145 0
-15 -14 10 -144 146 0
-15 -14 10 -144 -146 0
-6 -3 9 147 148 0
-6 -3 9 147 -148 0
-6 -3 9 -147 149 0
-6 -3 9 -147 -149 0
-19 -1 11 150 151 0
-19 -1 11 150 -151 0
-19 -1 11 -150 152 0
-19 -1 11 -150 -152 0
-3 11 5 153 154 0
-3 11 5 153 -154 0
-3 11 5 -153 155 0
-3 11 5 -153 -155 0
4 -16 13 156 157 0
4 -16 13 156 -157 0
4 -16 13 -156 158 0
4 -16 13 -156 -158 0
-18 -3 -7 159 160 0
-18 -3 -7 159 -160 0
-18 -3 -7 -159 161 0
-18 -3 -7 -159 -161 0
-2 14 1 162 163 0
-2 14 1 162 -163 0
-2 14 1 -162 164 0
-2 14 1 -162 -164 0
16 -10 6 165 166 0
16 -10 6 165 -166 0
16 -10 6 -165 167 0
16 -10 6 -165 -167 0
-13 -3 16 168 169 0
-13 -3 16 168 -169 0
-13 -3 16 -168 170 0
-13 -3 16 -168 -170 0
-6 2 -20 171 172 0
-6 2 -20 171 -172 0
-6 2 -20 -171 173 0
-6 2 -20 -171 -173 0
-6 -4 15 174 175 0
-6 -4 15 174 -175 0
-6 -4 15 -174 176 0
-6 -4 15 -174 -176 0
4 -1 19 177 178 0
4 -1 19 177 -178 0
4 -1 19 -177 179 0
4 -1 19 -177 -179 0
-10 -13 -18 180 181 0
-10 -13 -18 180 -181 0
-10 -13 -18 -180 182 0
-10 -13 -18 -180 -182 0
-1 11 -19 183 184 0
-1 11 -19 183 -184 0
-1 11 -19 -183 185 0
-1 11 -19 -183 -185 0
-20 -13 19 186 187 0
-20 -13 19 186 -187 0
-20 -13 19 -186 188 0
-20 -13 19 -186 -188 0
12 16 7 189 190 0
12 16 7 189 -190 0
12 16 7 -189 191 0
12 16 7 -189 -191 0
-12 -11 8 192 193 0
-12 -11 8 192 -193 0
-12 -11 8 -192 194 0
-12 -11 8 -192 -194 0
-19 5 -18 195 196 0
-19 5 -18 195 -196 0
-19 5 -18 -195 197 0
-19 5 -18 -195 -197 0
-13 -1 -7 198 199 0
-13 -1 -7 198 -199 0
-13 -1 -7 -198 200 0
-13 -1 -7 -198 -200 0
8 -16 -6 201 202 0
8 -16 -6 201 -202 0
8 -16 -6 -201 203 0
8 -16 -6 -201 -203 0
-10 -6 -12 204 205 0
-10 -6 -12 204 -205 0
-10 -6 -12 -204 206 0
-10 -6 -12 -204 -206 0
3 -4 10 207 208 0
3 -4 10 207 -208 0
3 -4 10 -207 209 0
3 -4 10 -207 -209 0
-15 13 9 210 211 0
-15 13 9 210 -211 0
-15 13 9 -210 212 0
-15 13 9 -210 -212 0
-9 -1 11 213 214 0
-9 -1 11 213 -214 0
-9 -1 11 -213 215 0
-9 -1 11 -213 -215 0
-8 19 -2 216 217 0
-8 19 -2 216 -217 0
-8 19 -2 -216 218 0
-8 19 -2 -216 -218 0
11 14 -2 219 220 0
11 14 -2 219 -220 0
11 14 -2 -219 221 0
11 14 -2 -219 -221 0
-1 13 -17 222 223 0
-1 13 -17 222 -223 0
-1 13 -17 -222 224 0
-1 13 -17 -222 -224 0
15 18 -3 225 226 0
15 18 -3 225 -226 0
15 18 -3 -225 227 0
15 18 -3 -225 -227 0
14 -18 11 228 229 0
14 -18 11 228 -229 0
14 -18 11 -228 230 0
14 -18 11 -228 -230 0
-10 -20 1 231 232 0
-10 -20 1 231 -232 0
-10 -20 1 -231 233 0
-10 -20 1 -231 -233 0
8 4 18 234 235 0
8 4 18 234 -235 0
8 4 18 -234 236 0
8 4 18 -234 -236 0
-3 -7 20 237 238 0
-3 -7 20 237 -238 0
-3 -7 20 -237 239 0
-3 -7 20 -237 -239 0
-10 -12 19 240 241 0
-10 -12 19 240 -241 0
-10 -12 19 -240 242 0
-10 -12 19 -240 -242 0
-4 -9 -6 243 244 0
-4 -9 -6 243 -244 0
-4 -9 -6 -243 245 0
-4 -9 -6 -243 -245 0
-17 -1 -18 246 247 0
-17 -1 -18 246 -247 0
-17 -1 -18 -246 248 0
-17 -1 -18 -246 -248 0
1 16 19 249 250 0
1 16 19 249 -250 0
1 16 19 -249 251 0
1 16 19 -249 -251 0
-13 8 5 252 253 0
-13 8 5 252 -253 0
-13 8 5 -252 254 0
-13 8 5 -252 -254 0
-3 -16 -5 255 256 0
-3 -16 -5 255 -256 0
-3 -16 -5 -255 257 0
-3 -16 -5 -255 -257 0
-19 13 -10 258 259 0
-19 13 -10 258 -259 0
-19 13 -10 -258 260 0
-19 13 -10 -258 -260 0
15 6 4 261 262 0
15 6 4 261 -262 0
15 6 4 -261 263 0
15 6 4 -261 -263 0
2 5 14 264 265 0
2 5 14 264 -265 0
2 5 14 -264 266 0
2 5 14 -264 -266 0
-11 15 19 267 268 0
-11 15 19 267 -268 0
-11 15 19 -267 269 0
-11 15 19 -267 -269 0
10 -6 -16 270 271 0
10 -6 -16 270 -271 0
10 -6 -16 -270 272 0
10 -6 -16 -270 -272 0
19 -18 -7 273 274 0
19 -18 -7 273 -274 0
19 -18 -7 -273 275 0
19 -18 -7 -273 -275 0
20 -9 1 276 277 0
20 -9 1 276 -277 0
20 -9 1 -276 278 0
20 -9 1 -276 -278 0
7 -17 -11 279 280 0
7 -17 -11 279 -280 0
7 -17 -11 -279 281 0
7 -17 -11 -279 -281 0
8 10 -14 282 283 0
8 10 -14 282 -283 0
8 10 -14 -282 284 0
8 10 -14 -282 -284 0
8 -14 -20 285 286 0
8 -14 -20 285 -286 0
8 -14 -20 -285 287 0
8 -14 -20 -285 -287 0
17 13 15 288 289 0
17 13 15 288 -289 0
17 13 15 -288 290 0
17 13 15 -288 -290 0
-18 1 -19 291 292 0
-18 1 -19 291 -292 0
-18 1 -19 -291 293 0
-18 1 -19 -291 -293 0
294 295 297 301 309 0
294 295 297 301 -309 0
294 295 297 -301 310 0
294 295 297 -301 -310 0
294 295 -297 302 311 0
294 295 -297 302 -311 0
294 295 -297 -302 312 0
294 295 -297 -302 -312 0
294 -295 298 303 313 0
294 -295 298 303 -313 0
294 -295 298 -303 314 0
294 -295 298 -303 -314 0
294 -295 -298 304 315 0
294 -295 -298 304 -315 0
294 -295 -298 -304 316 0
294 -295 -298 -304 -316 0
-294 296 299 305 317 0
-294 296 299 305 -317 0
-294 296 299 -305 318 0
-294 296 299 -305 -318 0
-294 296 -299 306 319 0
-294 296 -299 306 -319 0
-294 296 -299 -306 320 0
-294 296 -299 -306 -320 0
-294 -296 300 307 321 0
-294 -296 300 307 -321 0
-294 -296 300 -307 322 0
-294 -296 300 -307 -322 0
-294 -296 -300 308 323 0
-294 -296 -300 308 -323 0
-294 -296 -300 -308 324 0
-294 -296 -300 -308 -324 0
325 326 328 332 340 0
325 326 328 332 -340 0
325 326 328 -332 341 0
325 326 328 -332 -341 0
325 326 -328 333 342 0
325 326 -328 333 -342 0
325 326 -328 -333 343 0
325 326 -328 -333 -343 0
325 -326 329 334 344 0
325 -326 329 334 -344 0
325 -326 329 -334 345 0
325 -326 329 -334 -345 0
325 -326 -329 335 346 0
325 -326 -329 335 -346 0
325 -326 -329 -335 347 0
325 -326 -329 -335 -347 0
-325 327 330 336 348 0
-325 327 330 336 -348 0
-325 327 330 -336 349 0
-325 327 330 -336 -349 0
-325 327 -330 337 350 0
-325 327 -330 337 -350 0
-325 327 -330 -337 351 0
-325 327 -330 -337 -351 0
-325 -327 331 338 352 0
-325 -327 331 338 -352 0
-325 -327 331 -338 353 0
-325 -327 331 -338 -353 0
-325 -327 -331 339 354 0
-325 -327 -331 339 -354 0
-325 -327 -331 -339 355 0
-325 -327 -331 -339 -355 0
356 357 359 363 371 0
356 357 359 363 -371 0
356 357 359 -363 372 0
356 357 359 -363 -372 0
356 357 -359 364 373 0
356 357 -359 364 -373 0
356 357 -359 -364 374 0
356 357 -359 -364 -374 0
356 -357 360 365 375 0
356 -357 360 365 -375 0
356 -357 360 -365 376 0
356 -357 360 -365 -376 0
356 -357 -360 366 377 0
356 -357 -360 366 -377 0
356 -357 -360 -366 378 0
356 -357 -360 -366 -378 0
-356 358 361 367 379 0
-356 358 361 367 -379 0
-356 358 361 -367 380 0
-356 358 361 -367 -380 0
-356 358 -361 368 381 0
-356 358 -361 368 -381 0
-356 358 -361 -368 382 0
-356 358 -361 -368 -382 0
-356 -358 362 369 383 0
-356 -358 362 369 -383 0
-356 -358 362 -369 384 0
-356 -358 362 -369 -384 0
-356 -358 -362 370 385 0
-356 -358 -362 370 -385 0
-356 -358 -362 -370 386 0
-356 -358 -362 -370 -386 0

